10 10 1
1 1 1 1 1 1 1 1 0 0 0 0
0 0 0 0
0.0 0
2  8 1  6 2  6 3  6 4  6 5  6 6  6 7  6 8  6  2 9  1 10  1
2  8 1 10 2 10 3 10 4 10 5 10 6 10 7 10 8 10  2 9  1 10  1
2  8 1 18 2 20 3 20 4 20 5 20 6 20 7 20 8 20  2 9  2 10  2
2  8 1  8 2  8 3  8 4  8 5  8 6  8 7  8 8  8  2 9  1 10  1
2  8 1 15 2 15 3 15 4 15 5 15 6 15 7 15 8 15  2 9  2 10  2
2  8 1 12 2 12 3 12 4 12 5 12 6 12 7 12 8 12  2 9  1 10  1
2  8 1 18 2 18 3 18 4 18 5 18 6 18 7 18 8 18  2 9  2 10  2
2  8 1 16 2 16 3 16 4 16 5 16 6 16 7 16 8 16  2 9  2 10  2
2  8 1  3 2  3 3  3 4  3 5  3 6  3 7  3 8  3  2 9  1 10  1
2  8 1  9 2  9 3  9 4  9 5  9 6  9 7  9 8  9  2 9  1 10  1
